\* tsp *\
Minimize
OBJ: 9.04734879233 x_(0,_1) + 7.73146278656 x_(0,_2) + 12.6816465039 x_(0,_3)
 + 14.8433816828 x_(0,_4) + 14.7550567603 x_(0,_5) + 9.04734879233 x_(1,_0)
 + 8.36317541906 x_(1,_2) + 17.5410999085 x_(1,_3) + 20.5258819506 x_(1,_4)
 + 21.3226261556 x_(1,_5) + 7.73146278656 x_(2,_0) + 8.36317541906 x_(2,_1)
 + 9.35808719397 x_(2,_3) + 12.4747462227 x_(2,_4) + 13.6351914845 x_(2,_5)
 + 12.6816465039 x_(3,_0) + 17.5410999085 x_(3,_1) + 9.35808719397 x_(3,_2)
 + 3.20128662416 x_(3,_4) + 4.98037709918 x_(3,_5) + 14.8433816828 x_(4,_0)
 + 20.5258819506 x_(4,_1) + 12.4747462227 x_(4,_2) + 3.20128662416 x_(4,_3)
 + 2.37074034428 x_(4,_5) + 14.7550567603 x_(5,_0) + 21.3226261556 x_(5,_1)
 + 13.6351914845 x_(5,_2) + 4.98037709918 x_(5,_3) + 2.37074034428 x_(5,_4)
Subject To
_C1: x_(0,_0) = 0
_C10: x_(3,_3) = 0
_C11: x_(3,_0) + x_(3,_1) + x_(3,_2) + x_(3,_3) + x_(3,_4) + x_(3,_5) = 1
_C12: x_(0,_3) + x_(1,_3) + x_(2,_3) + x_(3,_3) + x_(4,_3) + x_(5,_3) = 1
_C13: x_(4,_4) = 0
_C14: x_(4,_0) + x_(4,_1) + x_(4,_2) + x_(4,_3) + x_(4,_4) + x_(4,_5) = 1
_C15: x_(0,_4) + x_(1,_4) + x_(2,_4) + x_(3,_4) + x_(4,_4) + x_(5,_4) = 1
_C16: x_(5,_5) = 0
_C17: x_(5,_0) + x_(5,_1) + x_(5,_2) + x_(5,_3) + x_(5,_4) + x_(5,_5) = 1
_C18: x_(0,_5) + x_(1,_5) + x_(2,_5) + x_(3,_5) + x_(4,_5) + x_(5,_5) = 1
_C19: x_(0,_2) + x_(1,_0) + x_(2,_1) <= 2
_C2: x_(0,_0) + x_(0,_1) + x_(0,_2) + x_(0,_3) + x_(0,_4) + x_(0,_5) = 1
_C20: x_(3,_5) + x_(4,_3) + x_(5,_4) <= 2
_C3: x_(0,_0) + x_(1,_0) + x_(2,_0) + x_(3,_0) + x_(4,_0) + x_(5,_0) = 1
_C4: x_(1,_1) = 0
_C5: x_(1,_0) + x_(1,_1) + x_(1,_2) + x_(1,_3) + x_(1,_4) + x_(1,_5) = 1
_C6: x_(0,_1) + x_(1,_1) + x_(2,_1) + x_(3,_1) + x_(4,_1) + x_(5,_1) = 1
_C7: x_(2,_2) = 0
_C8: x_(2,_0) + x_(2,_1) + x_(2,_2) + x_(2,_3) + x_(2,_4) + x_(2,_5) = 1
_C9: x_(0,_2) + x_(1,_2) + x_(2,_2) + x_(3,_2) + x_(4,_2) + x_(5,_2) = 1
Binaries
x_(0,_0)
x_(0,_1)
x_(0,_2)
x_(0,_3)
x_(0,_4)
x_(0,_5)
x_(1,_0)
x_(1,_1)
x_(1,_2)
x_(1,_3)
x_(1,_4)
x_(1,_5)
x_(2,_0)
x_(2,_1)
x_(2,_2)
x_(2,_3)
x_(2,_4)
x_(2,_5)
x_(3,_0)
x_(3,_1)
x_(3,_2)
x_(3,_3)
x_(3,_4)
x_(3,_5)
x_(4,_0)
x_(4,_1)
x_(4,_2)
x_(4,_3)
x_(4,_4)
x_(4,_5)
x_(5,_0)
x_(5,_1)
x_(5,_2)
x_(5,_3)
x_(5,_4)
x_(5,_5)
End
